SCIP version 5.0.0 [precision: 8 byte] [memory: block] [mode: optimized] [LP solver: NONE] [GitHash: 3bbd232]
Copyright (C) 2002-2017 Konrad-Zuse-Zentrum fuer Informationstechnik Berlin (ZIB)

External codes: 
  Readline EditLine w  GNU library for command line editing (gnu.org/s/readline)
  CppAD 20160000.1     Algorithmic Differentiation of C++ algorithms developed by B. Bell (www.coin-or.org/CppAD)
  ZLIB 1.2.5           General purpose compression library by J. Gailly and M. Adler (zlib.net)
  GMP 6.1.2            GNU Multiple Precision Arithmetic Library developed by T. Granlund (gmplib.org)

user parameter file <scip.set> not found - using default parameters

read problem <../../Split_data/output/biodeg/9/1_sample_biodeg.logreg>
============

File name	:	../../Split_data/output/biodeg/9/1_sample_biodeg.logreg
Problem name 	:	1_sample_biodeg
Number of data	:	844
Number of var	:	41
The given data has linear independence

[dim=1] time: 0.029885
[dim=2] time: 0.063931
[dim=3] time: 0.102473
[dim=4] time: 0.132607
[dim=5] time: 0.168259
[dim=6] time: 0.201608
[dim=7] time: 0.230605
[dim=8] time: 0.264078
[dim=9] time: 0.295059
[dim=10] time: 0.326336
[dim=11] time: 0.357299
[dim=12] time: 0.383504
[dim=13] time: 0.410943
[dim=14] time: 0.434463
[dim=15] time: 0.469905
[dim=16] time: 0.495868
[dim=17] time: 0.519349
[dim=18] time: 0.543249
[dim=19] Time of forward = 0.566901sec.
AIC: 525.759
k: 18

[dim=41] time: 0.143541
[dim=40] time: 0.198063
[dim=39] time: 0.25396
[dim=38] time: 0.321494
[dim=37] time: 0.373245
[dim=36] time: 0.422538
[dim=35] time: 0.507133
[dim=34] time: 0.61153
[dim=33] time: 0.655114
[dim=32] time: 0.701799
[dim=31] time: 0.74768
[dim=30] time: 0.782209
[dim=29] time: 0.816761
[dim=28] time: 0.869559
[dim=27] time: 0.900434
[dim=26] time: 0.927419
[dim=25] time: 0.954018
[dim=24] time: 0.980517
[dim=23] time: 1.01378
[dim=22] time: 1.05581
[dim=21] Time of backward = 1.07763sec.
AIC: 523.027
k: 22
